11 7 18 17 3 14 10 19 4 15 0 16 1 13 12 9 6 2 8 5
14 16 15 1 17 7 11 3 19 10 13 4 6 9 18 8 12 2 0 5
17 11 14 10 3 15 19 7 0 16 1 13 9 4 12 18 6 2 8 5
14 3 17 10 7 19 11 13 15 4 1 6 12 16 18 2 0 9 5 8
3 15 17 14 19 10 7 11 1 4 16 0 13 12 6 2 18 9 5 8
17 3 19 14 15 10 7 16 13 4 11 18 1 12 9 0 8 5 2 6
17 11 3 14 7 10 13 1 4 6 12 18 9 19 16 2 15 8 5 0
14 3 17 11 10 15 19 16 1 13 12 4 6 2 0 9 18 5 7 8
17 14 3 19 7 11 15 13 1 16 4 10 0 2 18 8 6 9 12 5
17 14 3 11 19 10 1 15 7 13 6 9 2 4 0 12 5 18 8 16